************************************************************************
file with basedata            : j60_55.bas
initial value random generator: 1905145435
************************************************************************
projects                      :  1
jobs (incl. supersource/sink ):  62
horizon                       :  303
RESOURCES
  - renewable                 :  4   R
  - nonrenewable              :  0   N
  - doubly constrained        :  0   D
************************************************************************
PROJECT INFORMATION:
pronr.  #jobs rel.date duedate tardcost  MPM-Time
    1     60      0       83       14       83
************************************************************************
PRECEDENCE RELATIONS:
jobnr.    #modes  #successors   successors
   1        1          3           2   3   4
   2        1          3           6   8  14
   3        1          3           5  23  24
   4        1          3          24  37  45
   5        1          3           7  11  21
   6        1          3          19  30  35
   7        1          3           9  10  15
   8        1          3          22  28  31
   9        1          3          12  17  30
  10        1          3          20  22  50
  11        1          3          27  40  42
  12        1          3          13  16  18
  13        1          1          31
  14        1          3          27  46  51
  15        1          3          38  40  56
  16        1          3          28  38  41
  17        1          3          20  25  29
  18        1          3          29  33  45
  19        1          3          27  50  55
  20        1          3          37  39  42
  21        1          3          25  45  53
  22        1          2          34  39
  23        1          3          37  41  56
  24        1          3          26  32  52
  25        1          1          35
  26        1          2          39  47
  27        1          1          59
  28        1          2          32  55
  29        1          2          44  54
  30        1          3          32  36  38
  31        1          3          33  35  36
  32        1          3          33  43  47
  33        1          2          34  49
  34        1          2          40  53
  35        1          2          43  44
  36        1          1          41
  37        1          2          52  58
  38        1          1          46
  39        1          3          43  44  57
  40        1          1          51
  41        1          3          42  46  51
  42        1          1          48
  43        1          1          49
  44        1          2          48  55
  45        1          2          47  61
  46        1          2          48  52
  47        1          1          50
  48        1          3          49  59  60
  49        1          1          58
  50        1          2          54  57
  51        1          1          60
  52        1          1          53
  53        1          3          54  57  61
  54        1          1          59
  55        1          1          56
  56        1          1          58
  57        1          1          60
  58        1          1          61
  59        1          1          62
  60        1          1          62
  61        1          1          62
  62        1          0        
************************************************************************
REQUESTS/DURATIONS:
jobnr. mode duration  R 1  R 2  R 3  R 4
------------------------------------------------------------------------
  1      1     0       0    0    0    0
  2      1     4       8    0    0    4
  3      1     9       4    2    0    0
  4      1     2       0    8    0    0
  5      1     6       8    0    0    0
  6      1     3       2    0    0    3
  7      1     4       8    0    0    8
  8      1     7       3    0    6    0
  9      1     9       7    3   10    0
 10      1     5       0    2    1    0
 11      1     2       6   10    0    0
 12      1     9       9    8    2    0
 13      1     1      10    0    0    1
 14      1     9       0    3    8   10
 15      1     7       0    0    0    1
 16      1     6       3    1    4    0
 17      1     3       0    9    0    5
 18      1     8       0    7    0    0
 19      1     5       2    6    0    0
 20      1    10       0    0    0    8
 21      1     1       0    4    6    0
 22      1     4       0    2    1    9
 23      1     3       0    0    0    7
 24      1     3       0    0    0    8
 25      1     9       0   10    8    0
 26      1     8       8    7    2    0
 27      1     6       8    0   10    5
 28      1     2      10    4    1    0
 29      1     8       8    0    0    6
 30      1     5       0    4    0    0
 31      1     4       7    2    0    0
 32      1     5       0    0    9    7
 33      1    10       9    1    0    0
 34      1     7       0    0    2    0
 35      1     1       0    8    0   10
 36      1     3       0    0    3    0
 37      1    10       0    5    0    0
 38      1     3       0    2   10    0
 39      1     1       1    0    0   10
 40      1     3       9    0    0    7
 41      1     8       4    4    0    9
 42      1     4       0    5    0    0
 43      1     6       0    8    2    8
 44      1     2       0    0    1    0
 45      1     8       0    0    2    4
 46      1     4       6    6    0    3
 47      1     3       8    0    0    0
 48      1     6       4    6    7    0
 49      1     6       0    4    2    0
 50      1     1       8    0    0    8
 51      1     3       2    9    1    0
 52      1     3       0    6   10    0
 53      1     3       0   10   10    9
 54      1    10       0    8    2    4
 55      1     5       0   10    6    7
 56      1     9       8    0    0    0
 57      1     3       5   10    0    2
 58      1     6       6    0    0    0
 59      1     3       0    0    5    2
 60      1     4       0    2    2    0
 61      1     1       4    3    0    0
 62      1     0       0    0    0    0
************************************************************************
RESOURCEAVAILABILITIES:
  R 1  R 2  R 3  R 4
   20   24   19   22
************************************************************************
